(set-logic ALL)
(declare-fun var0 () String)
(assert (str.in_re var0 (re.++ (re.union (re.+ (str.to_re "000")) (re.+ (str.to_re "111"))) (re.++ (re.* (re.+ (str.to_re "22"))) (re.++ (re.+ (re.union (str.to_re "333") (str.to_re "44"))) (re.++ (re.+ (re.union (str.to_re "555") (str.to_re "666"))) (re.++ (re.union (re.union (str.to_re "77") (str.to_re "8")) (re.union (str.to_re "99") (str.to_re "aaa"))) (re.++ (re.+ (re.union (str.to_re "b") (str.to_re "cc"))) (re.++ (re.union (re.union (str.to_re "ddd") (str.to_re "e")) (re.union (str.to_re "fff") (str.to_re "ggg"))) (re.++ (re.union (re.union (str.to_re "h") (str.to_re "i")) (re.union (str.to_re "j") (str.to_re "kkk"))) (re.++ (re.* (re.+ (str.to_re "l"))) (re.++ (re.+ (re.+ (str.to_re "mmm"))) (re.++ (re.union (re.* (str.to_re "n")) (re.* (str.to_re "o"))) (re.++ (re.* (re.+ (str.to_re "pp"))) (re.++ (re.union (re.+ (str.to_re "qqq")) (re.+ (str.to_re "r"))) (re.++ (re.* (re.* (str.to_re "sss"))) (re.++ (re.union (re.+ (str.to_re "t")) (re.+ (str.to_re "uu"))) (re.++ (re.union (re.+ (str.to_re "vv")) (re.+ (str.to_re "w"))) (re.++ (re.union (re.+ (str.to_re "xxx")) (re.+ (str.to_re "y"))) (re.++ (re.union (re.* (str.to_re "z")) (re.* (str.to_re "AAA"))) (re.++ (re.* (re.union (str.to_re "B") (str.to_re "CC"))) (re.++ (re.* (re.* (str.to_re "DD"))) (re.++ (re.union (re.union (str.to_re "EE") (str.to_re "F")) (re.union (str.to_re "GGG") (str.to_re "H"))) (re.++ (re.* (re.union (str.to_re "I") (str.to_re "JJ"))) (re.++ (re.+ (re.+ (str.to_re "K"))) (re.++ (re.+ (re.union (str.to_re "L") (str.to_re "MM"))) (re.++ (re.* (re.union (str.to_re "NN") (str.to_re "O"))) (re.union (re.union (str.to_re "PPP") (str.to_re "QQ")) (re.union (str.to_re "RRR") (str.to_re "S"))))))))))))))))))))))))))))))
(assert (not (str.in_re var0 (re.++ (re.+ (re.union (str.to_re "00") (str.to_re "11"))) (re.++ (re.+ (re.union (str.to_re "2") (str.to_re "33"))) (re.++ (re.union (re.* (str.to_re "44")) (re.* (str.to_re "5"))) (re.++ (re.* (re.union (str.to_re "6") (str.to_re "777"))) (re.++ (re.union (re.* (str.to_re "88")) (re.* (str.to_re "9"))) (re.++ (re.union (re.+ (str.to_re "aa")) (re.+ (str.to_re "bbb"))) (re.++ (re.* (re.* (str.to_re "c"))) (re.++ (re.* (re.* (str.to_re "dd"))) (re.++ (re.* (re.* (str.to_re "eee"))) (re.++ (re.* (re.* (str.to_re "f"))) (re.++ (re.* (re.+ (str.to_re "ggg"))) (re.++ (re.* (re.+ (str.to_re "hhh"))) (re.++ (re.+ (re.+ (str.to_re "i"))) (re.++ (re.+ (re.union (str.to_re "jjj") (str.to_re "k"))) (re.++ (re.+ (re.union (str.to_re "l") (str.to_re "m"))) (re.++ (re.* (re.union (str.to_re "n") (str.to_re "o"))) (re.++ (re.union (re.union (str.to_re "p") (str.to_re "qq")) (re.union (str.to_re "rr") (str.to_re "s"))) (re.++ (re.union (re.+ (str.to_re "ttt")) (re.+ (str.to_re "u"))) (re.++ (re.+ (re.* (str.to_re "vv"))) (re.++ (re.union (re.union (str.to_re "ww") (str.to_re "xx")) (re.union (str.to_re "yyy") (str.to_re "zz"))) (re.++ (re.union (re.* (str.to_re "AA")) (re.* (str.to_re "BBB"))) (re.++ (re.union (re.+ (str.to_re "C")) (re.+ (str.to_re "DD"))) (re.++ (re.* (re.* (str.to_re "E"))) (re.++ (re.union (re.union (str.to_re "FFF") (str.to_re "GGG")) (re.union (str.to_re "HHH") (str.to_re "II"))) (re.++ (re.+ (re.union (str.to_re "JJJ") (str.to_re "K"))) (re.+ (re.* (str.to_re "L")))))))))))))))))))))))))))))))
(check-sat)